peakDumbCharging = 7400; 
Machine = anon_enum(16); 
machineSpeed = [3700,3700,3700,3700,3700,3700,3700,3700,3700,3700,3700,3700,3700,3700,3700,3700]; 
machineLoad = [3700,3700,3700,3700,3700,3700,3700,3700,3700,3700,3700,3700,3700,3700,3700,3700]; 
Car = anon_enum(12); 
demandCar = [16800,7320,4480,7600,14480,8880,2680,11000,9040,1120,25440,8480]; 
arrivalCar = [82,77,76,72,67,64,57,57,51,47,42,42]; 
departureCar = [87,80,78,75,72,67,58,63,55,49,50,45]; 
